(set-info :smt-lib-version 2.6)
(set-logic UF)
(set-info :source |
Generated by: Andrew Reynolds
Generated on: 2017-04-28
Generator: Sledgehammer, converted to v2.6 by CVC4
Application: Verfication goals in Isabelle
Target solver: CVC4, Z3
Publications: "A Decision Procedure for (Co)Datatypes" by Andrew Reynolds and Jasmin Blanchette, CADE 2015.
|)
(set-info :license "https://creativecommons.org/licenses/by/4.0/")
(set-info :category "industrial")
(set-info :status unsat)


(declare-sort Nat$ 0)
(declare-sort Nat_set$ 0)
(declare-sort Num_num_fun$ 0)
(declare-sort Nat_bool_fun$ 0)
(declare-sort Num_bool_fun$ 0)
(declare-sort Num$ 0)
(declare-fun one$ () Num$)
(declare-fun select$ (Num$) Num$)
(declare-fun bit0$ (Num$) Num$)
(declare-fun selecta$ (Num$) Num$)
(declare-fun bit1$ (Num$) Num$)
(declare-sort Nat_llist$ 0)
(declare-fun lNil$ () Nat_llist$)
(declare-fun lhd$ (Nat_llist$) Nat$)
(declare-fun ltl$ (Nat_llist$) Nat_llist$)
(declare-fun lCons$ (Nat$ Nat_llist$) Nat_llist$)
(declare-sort Nibble$ 0)
(declare-sort Char$ 0)
(declare-fun nibble0$ () Nibble$)
(declare-fun nibble1$ () Nibble$)
(declare-fun nibble2$ () Nibble$)
(declare-fun nibble3$ () Nibble$)
(declare-fun nibble4$ () Nibble$)
(declare-fun nibble5$ () Nibble$)
(declare-fun nibble6$ () Nibble$)
(declare-fun nibble7$ () Nibble$)
(declare-fun nibble8$ () Nibble$)
(declare-fun nibble9$ () Nibble$)
(declare-fun nibbleA$ () Nibble$)
(declare-fun nibbleB$ () Nibble$)
(declare-fun nibbleC$ () Nibble$)
(declare-fun nibbleD$ () Nibble$)
(declare-fun nibbleE$ () Nibble$)
(declare-fun nibbleF$ () Nibble$)
(declare-fun selectb$ (Char$) Nibble$)
(declare-fun selectc$ (Char$) Nibble$)
(declare-fun char$ (Nibble$ Nibble$) Char$)
(declare-fun n$ () Nat$)
(declare-fun p$ () Nat$)
(declare-fun n$a () Nat$)
(declare-fun na$ () Nat$)
(declare-fun uu$ (Nat_set$) Nat_bool_fun$)
(declare-fun dvd$ (Nat$) Nat_bool_fun$)
(declare-fun less$ (Nat$) Nat_bool_fun$)
(declare-fun lset$ (Nat_llist$) Nat_set$)
(declare-fun one$a () Nat$)
(declare-fun plus$ (Nat$ Nat$) Nat$)
(declare-fun less$a (Num$) Num_bool_fun$)
(declare-fun plus$a (Num$ Num$) Num$)
(declare-fun prime$ (Nat$) Bool)
(declare-fun times$ (Nat$ Nat$) Nat$)
(declare-fun member$ (Nat$ Nat_set$) Bool)
(declare-fun smooth$ (Nat$) Bool)
(declare-fun times$a (Num$) Num_num_fun$)
(declare-fun collect$ (Nat_bool_fun$) Nat_set$)
(declare-fun fun_app$ (Nat_bool_fun$ Nat$) Bool)
(declare-fun hamming$ () Nat_llist$)
(declare-fun less_eq$ (Nat$) Nat_bool_fun$)
(declare-fun numeral$ (Num$) Nat$)
(declare-fun fun_app$a (Num_num_fun$ Num$) Num$)
(declare-fun fun_app$b (Num_bool_fun$ Num$) Bool)
(declare-fun less_eq$a (Num$ Num$) Bool)
(declare-fun nat_of_char$ (Char$) Nat$)
(assert (forall ((?v0 Nat_set$) (?v1 Nat$)) (! (= (fun_app$ (uu$ ?v0) ?v1) (member$ ?v1 ?v0)) :pattern ((fun_app$ (uu$ ?v0) ?v1)))))
(assert (not (member$ (times$ (numeral$ (bit0$ one$)) n$) (lset$ hamming$))))
(assert (smooth$ na$))
(assert (smooth$ n$a))
(assert (fun_app$ (less$ (times$ (numeral$ (bit0$ one$)) n$)) na$))
(assert (member$ n$ (lset$ hamming$)))
(assert (fun_app$ (less$ n$) na$))
(assert (= na$ (times$ p$ n$)))
(assert (smooth$ n$))
(assert (forall ((?v0 Num$)) (= (= (bit0$ ?v0) one$) false) ))
(assert (forall ((?v0 Num$)) (= (= one$ (bit0$ ?v0)) false) ))
(assert (forall ((?v0 Num$) (?v1 Num$) (?v2 Nat$)) (= (times$ (numeral$ ?v0) (times$ (numeral$ ?v1) ?v2)) (times$ (numeral$ (fun_app$a (times$a ?v0) ?v1)) ?v2)) ))
(assert (forall ((?v0 Num$) (?v1 Num$)) (= (times$ (numeral$ ?v0) (numeral$ ?v1)) (numeral$ (fun_app$a (times$a ?v0) ?v1))) ))
(assert (forall ((?v0 Nat$)) (= (times$ (numeral$ one$) ?v0) ?v0) ))
(assert (forall ((?v0 Nat$)) (= (times$ ?v0 (numeral$ one$)) ?v0) ))
(assert (forall ((?v0 Num$) (?v1 Num$)) (= (= (bit0$ ?v0) (bit0$ ?v1)) (= ?v0 ?v1)) ))
(assert (forall ((?v0 Num$) (?v1 Num$)) (= (= (bit0$ ?v0) (bit0$ ?v1)) (= ?v0 ?v1)) ))
(assert (forall ((?v0 Num$) (?v1 Num$)) (= (= (numeral$ ?v0) (numeral$ ?v1)) (= ?v0 ?v1)) ))
(assert (forall ((?v0 Num$)) (not (= one$ (bit0$ ?v0))) ))
(assert (=> (forall ((?v0 Nat$)) (=> (= na$ (times$ p$ ?v0)) false) ) false))
(assert (prime$ p$))
(assert (forall ((?v0 Nat$)) (=> (and (fun_app$ (less$ ?v0) na$) (smooth$ ?v0)) (member$ ?v0 (lset$ hamming$))) ))
(assert (forall ((?v0 Num$) (?v1 Num$)) (= (fun_app$ (less$ (numeral$ ?v0)) (numeral$ ?v1)) (fun_app$b (less$a ?v0) ?v1)) ))
(assert (forall ((?v0 Num$) (?v1 Num$)) (! (= (fun_app$a (times$a (bit0$ ?v0)) (bit0$ ?v1)) (bit0$ (bit0$ (fun_app$a (times$a ?v0) ?v1)))) :pattern ((fun_app$a (times$a (bit0$ ?v0)) (bit0$ ?v1))))))
(assert (forall ((?v0 Num$)) (! (= (fun_app$a (times$a one$) ?v0) ?v0) :pattern ((fun_app$a (times$a one$) ?v0)))))
(assert (forall ((?v0 Num$)) (! (= (fun_app$a (times$a ?v0) one$) ?v0) :pattern ((times$a ?v0)))))
(assert (forall ((?v0 Nat$) (?v1 Nat$)) (= (smooth$ (times$ ?v0 ?v1)) (and (smooth$ ?v0) (smooth$ ?v1))) ))
(assert (fun_app$ (less$ one$a) na$))
(assert (fun_app$ (dvd$ p$) na$))
(assert (= p$ (numeral$ (bit1$ one$))))
(assert (= (= one$ one$) true))
(assert (smooth$ (numeral$ (bit0$ one$))))
(assert (or (= p$ (numeral$ (bit0$ one$))) (or (= p$ (numeral$ (bit1$ one$))) (= p$ (numeral$ (bit1$ (bit0$ one$)))))))
(assert (fun_app$ (less_eq$ p$) (numeral$ (bit1$ (bit0$ one$)))))
(assert (smooth$ (numeral$ (bit1$ (bit0$ one$)))))
(assert (forall ((?v0 Char$)) (fun_app$ (less$ (nat_of_char$ ?v0)) (numeral$ (bit0$ (bit0$ (bit0$ (bit0$ (bit0$ (bit0$ (bit0$ (bit0$ one$)))))))))) ))
(assert (forall ((?v0 Nat$)) (= (times$ ?v0 (numeral$ (bit0$ one$))) (plus$ ?v0 ?v0)) ))
(assert (forall ((?v0 Nat$)) (= (times$ (numeral$ (bit0$ one$)) ?v0) (plus$ ?v0 ?v0)) ))
(assert (exists ((?v0 Nat$)) (and (prime$ ?v0) (fun_app$ (dvd$ ?v0) na$)) ))
(assert (forall ((?v0 Num$) (?v1 Num$)) (! (= (plus$a (bit0$ ?v0) (bit0$ ?v1)) (bit0$ (plus$a ?v0 ?v1))) :pattern ((plus$a (bit0$ ?v0) (bit0$ ?v1))))))
(assert (forall ((?v0 Num$) (?v1 Num$)) (= (= (bit1$ ?v0) (bit1$ ?v1)) (= ?v0 ?v1)) ))
(assert (forall ((?v0 Num$) (?v1 Num$)) (= (= (bit1$ ?v0) (bit1$ ?v1)) (= ?v0 ?v1)) ))
(assert (forall ((?v0 Nat_bool_fun$) (?v1 Nat_bool_fun$)) (=> (forall ((?v2 Nat$)) (= (fun_app$ ?v0 ?v2) (fun_app$ ?v1 ?v2)) ) (= (collect$ ?v0) (collect$ ?v1))) ))
(assert (forall ((?v0 Nat_set$)) (= (collect$ (uu$ ?v0)) ?v0) ))
(assert (forall ((?v0 Nat$) (?v1 Nat_bool_fun$)) (= (member$ ?v0 (collect$ ?v1)) (fun_app$ ?v1 ?v0)) ))
(assert (forall ((?v0 Num$) (?v1 Num$)) (= (fun_app$ (less_eq$ (numeral$ ?v0)) (numeral$ ?v1)) (less_eq$a ?v0 ?v1)) ))
(assert (forall ((?v0 Num$) (?v1 Num$)) (= (plus$ (numeral$ ?v0) (numeral$ ?v1)) (numeral$ (plus$a ?v0 ?v1))) ))
(assert (forall ((?v0 Num$) (?v1 Num$) (?v2 Nat$)) (= (plus$ (numeral$ ?v0) (plus$ (numeral$ ?v1) ?v2)) (plus$ (numeral$ (plus$a ?v0 ?v1)) ?v2)) ))
(assert (= (plus$a one$ one$) (bit0$ one$)))
(assert (forall ((?v0 Num$) (?v1 Num$)) (! (= (plus$a (bit1$ ?v0) (bit0$ ?v1)) (bit1$ (plus$a ?v0 ?v1))) :pattern ((plus$a (bit1$ ?v0) (bit0$ ?v1))))))
(assert (forall ((?v0 Num$) (?v1 Num$)) (! (= (plus$a (bit0$ ?v0) (bit1$ ?v1)) (bit1$ (plus$a ?v0 ?v1))) :pattern ((plus$a (bit0$ ?v0) (bit1$ ?v1))))))
(assert (forall ((?v0 Num$) (?v1 Num$)) (= (= (bit0$ ?v0) (bit1$ ?v1)) false) ))
(assert (forall ((?v0 Num$) (?v1 Num$)) (= (= (bit1$ ?v0) (bit0$ ?v1)) false) ))
(assert (forall ((?v0 Num$)) (= (= (bit1$ ?v0) one$) false) ))
(assert (forall ((?v0 Num$)) (= (= one$ (bit1$ ?v0)) false) ))
(assert (forall ((?v0 Num$) (?v1 Num$)) (! (= (fun_app$b (less$a (bit0$ ?v0)) (bit0$ ?v1)) (fun_app$b (less$a ?v0) ?v1)) :pattern ((fun_app$b (less$a (bit0$ ?v0)) (bit0$ ?v1))))))
(assert (forall ((?v0 Num$)) (! (= (fun_app$b (less$a ?v0) one$) false) :pattern ((less$a ?v0)))))
(assert (=> (forall ((?v0 Nat$)) (=> (and (prime$ ?v0) (and (fun_app$ (dvd$ ?v0) na$) (fun_app$ (less_eq$ ?v0) (numeral$ (bit1$ (bit0$ one$)))))) false) ) false))
(assert (forall ((?v0 Num$) (?v1 Num$)) (! (= (fun_app$b (less$a (bit1$ ?v0)) (bit1$ ?v1)) (fun_app$b (less$a ?v0) ?v1)) :pattern ((fun_app$b (less$a (bit1$ ?v0)) (bit1$ ?v1))))))
(assert (forall ((?v0 Num$)) (= (= (numeral$ ?v0) one$a) (= ?v0 one$)) ))
(assert (forall ((?v0 Num$)) (= (= one$a (numeral$ ?v0)) (= one$ ?v0)) ))
(assert (forall ((?v0 Num$) (?v1 Num$)) (! (= (plus$a (bit1$ ?v0) (bit1$ ?v1)) (bit0$ (plus$a (plus$a ?v0 ?v1) one$))) :pattern ((plus$a (bit1$ ?v0) (bit1$ ?v1))))))
(assert (forall ((?v0 Num$)) (! (= (plus$a (bit1$ ?v0) one$) (bit0$ (plus$a ?v0 one$))) :pattern ((bit1$ ?v0)))))
(assert (forall ((?v0 Num$)) (! (= (plus$a one$ (bit1$ ?v0)) (bit0$ (plus$a ?v0 one$))) :pattern ((bit1$ ?v0)))))
(assert (forall ((?v0 Num$)) (! (= (plus$a (bit0$ ?v0) one$) (bit1$ ?v0)) :pattern ((bit0$ ?v0)))))
(assert (forall ((?v0 Num$)) (! (= (plus$a one$ (bit0$ ?v0)) (bit1$ ?v0)) :pattern ((bit0$ ?v0)))))
(assert (forall ((?v0 Num$) (?v1 Num$)) (! (= (fun_app$a (times$a (bit1$ ?v0)) (bit1$ ?v1)) (bit1$ (plus$a (plus$a ?v0 ?v1) (bit0$ (fun_app$a (times$a ?v0) ?v1))))) :pattern ((fun_app$a (times$a (bit1$ ?v0)) (bit1$ ?v1))))))
(assert (forall ((?v0 Num$) (?v1 Num$)) (! (= (fun_app$a (times$a (bit0$ ?v0)) (bit1$ ?v1)) (bit0$ (fun_app$a (times$a ?v0) (bit1$ ?v1)))) :pattern ((fun_app$a (times$a (bit0$ ?v0)) (bit1$ ?v1))))))
(assert (forall ((?v0 Num$) (?v1 Num$)) (! (= (fun_app$a (times$a (bit1$ ?v0)) (bit0$ ?v1)) (bit0$ (fun_app$a (times$a (bit1$ ?v0)) ?v1))) :pattern ((fun_app$a (times$a (bit1$ ?v0)) (bit0$ ?v1))))))
(assert (forall ((?v0 Num$)) (! (= (fun_app$b (less$a one$) (bit0$ ?v0)) true) :pattern ((bit0$ ?v0)))))
(assert (forall ((?v0 Num$) (?v1 Num$)) (! (= (fun_app$b (less$a (bit1$ ?v0)) (bit0$ ?v1)) (fun_app$b (less$a ?v0) ?v1)) :pattern ((fun_app$b (less$a (bit1$ ?v0)) (bit0$ ?v1))))))
(assert (forall ((?v0 Num$)) (! (= (fun_app$b (less$a one$) (bit1$ ?v0)) true) :pattern ((bit1$ ?v0)))))
(assert (forall ((?v0 Num$)) (= (fun_app$ (less_eq$ (numeral$ ?v0)) one$a) (less_eq$a ?v0 one$)) ))
(assert (forall ((?v0 Num$)) (= (plus$ (numeral$ ?v0) one$a) (numeral$ (plus$a ?v0 one$))) ))
(assert (forall ((?v0 Num$)) (= (plus$ one$a (numeral$ ?v0)) (numeral$ (plus$a one$ ?v0))) ))
(assert (= (plus$ one$a one$a) (numeral$ (bit0$ one$))))
(assert (forall ((?v0 Num$)) (= (fun_app$ (less$ one$a) (numeral$ ?v0)) (fun_app$b (less$a one$) ?v0)) ))
(assert (forall ((?v0 Num$)) (= (plus$ one$a (numeral$ ?v0)) (plus$ (numeral$ ?v0) one$a)) ))
(assert (forall ((?v0 Num$)) (! (= (numeral$ (bit1$ ?v0)) (plus$ (plus$ (numeral$ ?v0) (numeral$ ?v0)) one$a)) :pattern ((bit1$ ?v0)))))
(assert (fun_app$ (less_eq$ one$a) one$a))
(assert (forall ((?v0 Nat$) (?v1 Nat$)) (=> (and (prime$ ?v0) (fun_app$ (dvd$ ?v1) ?v0)) (or (= ?v1 one$a) (= ?v1 ?v0))) ))
(assert (forall ((?v0 Char$) (?v1 Char$)) (= (= (nat_of_char$ ?v0) (nat_of_char$ ?v1)) (= ?v0 ?v1)) ))
(assert (forall ((?v0 Num$)) (fun_app$ (less_eq$ one$a) (numeral$ ?v0)) ))
(assert (forall ((?v0 Nat$)) (= (smooth$ ?v0) (forall ((?v1 Nat$)) (=> (and (prime$ ?v1) (fun_app$ (dvd$ ?v1) ?v0)) (fun_app$ (less_eq$ ?v1) (numeral$ (bit1$ (bit0$ one$))))) )) ))
(assert (forall ((?v0 Num$) (?v1 Num$)) (not (= (bit0$ ?v0) (bit1$ ?v1))) ))
(assert (forall ((?v0 Num$)) (not (= one$ (bit1$ ?v0))) ))
(assert (forall ((?v0 Num$)) (! (= (plus$a one$ ?v0) (plus$a ?v0 one$)) :pattern ((plus$a one$ ?v0)))))
(assert (not (fun_app$ (less$ one$a) one$a)))
(assert (forall ((?v0 Nat$) (?v1 Nat$) (?v2 Nat$) (?v3 Nat$)) (= (plus$ (times$ ?v0 ?v1) (plus$ (times$ ?v2 ?v1) ?v3)) (plus$ (times$ (plus$ ?v0 ?v2) ?v1) ?v3)) ))
(assert (= (plus$ one$a one$a) (numeral$ (bit0$ one$))))
(assert (forall ((?v0 Num$)) (=> (and (=> (= ?v0 one$) false) (and (forall ((?v1 Num$)) (=> (= ?v0 (bit0$ ?v1)) false) ) (forall ((?v1 Num$)) (=> (= ?v0 (bit1$ ?v1)) false) ))) false) ))
(assert (forall ((?v0 Num$)) (! (= (numeral$ (bit0$ ?v0)) (plus$ (numeral$ ?v0) (numeral$ ?v0))) :pattern ((bit0$ ?v0)))))
(assert (forall ((?v0 Num$)) (not (fun_app$ (less$ (numeral$ ?v0)) one$a)) ))
(assert (= (numeral$ one$) one$a))
(assert (= (numeral$ one$) one$a))
(assert (smooth$ (numeral$ (bit1$ one$))))
(assert (forall ((?v0 Nat$)) (= (fun_app$ (dvd$ (numeral$ (bit0$ one$))) (plus$ ?v0 one$a)) (not (fun_app$ (dvd$ (numeral$ (bit0$ one$))) ?v0))) ))
(assert (forall ((?v0 Nat$) (?v1 Nat$)) (= (fun_app$ (dvd$ (numeral$ (bit0$ one$))) (plus$ ?v0 ?v1)) (= (fun_app$ (dvd$ (numeral$ (bit0$ one$))) ?v0) (fun_app$ (dvd$ (numeral$ (bit0$ one$))) ?v1))) ))
(assert (forall ((?v0 Nat$) (?v1 Nat$)) (= (not (fun_app$ (dvd$ (numeral$ (bit0$ one$))) (plus$ ?v0 ?v1))) (not (= (not (fun_app$ (dvd$ (numeral$ (bit0$ one$))) ?v0)) (not (fun_app$ (dvd$ (numeral$ (bit0$ one$))) ?v1))))) ))
(assert (forall ((?v0 Nat$) (?v1 Nat$)) (= (fun_app$ (dvd$ (numeral$ (bit0$ one$))) (times$ ?v0 ?v1)) (or (fun_app$ (dvd$ (numeral$ (bit0$ one$))) ?v0) (fun_app$ (dvd$ (numeral$ (bit0$ one$))) ?v1))) ))
(assert (forall ((?v0 Nat$) (?v1 Nat$) (?v2 Nat$)) (=> (prime$ ?v0) (= (fun_app$ (dvd$ ?v0) (times$ ?v1 ?v2)) (or (fun_app$ (dvd$ ?v0) ?v1) (fun_app$ (dvd$ ?v0) ?v2)))) ))
(assert (forall ((?v0 Nat$) (?v1 Nat$)) (=> (and (fun_app$ (dvd$ ?v0) one$a) (fun_app$ (dvd$ ?v1) one$a)) (fun_app$ (dvd$ (times$ ?v0 ?v1)) one$a)) ))
(assert (forall ((?v0 Nat$) (?v1 Nat$) (?v2 Nat$)) (= (fun_app$ (dvd$ ?v0) (plus$ (times$ ?v1 ?v0) ?v2)) (fun_app$ (dvd$ ?v0) ?v2)) ))
(assert (forall ((?v0 Nat$) (?v1 Nat$)) (= (fun_app$ (dvd$ ?v0) (plus$ ?v1 ?v0)) (fun_app$ (dvd$ ?v0) ?v1)) ))
(assert (forall ((?v0 Nat$) (?v1 Nat$)) (= (fun_app$ (dvd$ ?v0) (plus$ ?v0 ?v1)) (fun_app$ (dvd$ ?v0) ?v1)) ))
(assert (forall ((?v0 Num$) (?v1 Num$)) (! (= (less_eq$a (bit0$ ?v0) (bit0$ ?v1)) (less_eq$a ?v0 ?v1)) :pattern ((less_eq$a (bit0$ ?v0) (bit0$ ?v1))))))
(assert (forall ((?v0 Num$)) (! (= (less_eq$a one$ ?v0) true) :pattern ((less_eq$a one$ ?v0)))))
(assert (forall ((?v0 Num$) (?v1 Num$)) (! (= (less_eq$a (bit1$ ?v0) (bit1$ ?v1)) (less_eq$a ?v0 ?v1)) :pattern ((less_eq$a (bit1$ ?v0) (bit1$ ?v1))))))
(assert (forall ((?v0 Nat$) (?v1 Nat$) (?v2 Nat$)) (= (fun_app$ (dvd$ ?v0) (plus$ ?v1 (times$ ?v2 ?v0))) (fun_app$ (dvd$ ?v0) ?v1)) ))
(assert (forall ((?v0 Num$)) (! (= (less_eq$a (bit0$ ?v0) one$) false) :pattern ((bit0$ ?v0)))))
(assert (forall ((?v0 Num$) (?v1 Num$)) (! (= (less_eq$a (bit0$ ?v0) (bit1$ ?v1)) (less_eq$a ?v0 ?v1)) :pattern ((less_eq$a (bit0$ ?v0) (bit1$ ?v1))))))
(assert (forall ((?v0 Num$)) (! (= (less_eq$a (bit1$ ?v0) one$) false) :pattern ((bit1$ ?v0)))))
(assert (forall ((?v0 Num$) (?v1 Num$)) (! (= (fun_app$b (less$a (bit0$ ?v0)) (bit1$ ?v1)) (less_eq$a ?v0 ?v1)) :pattern ((fun_app$b (less$a (bit0$ ?v0)) (bit1$ ?v1))))))
(assert (forall ((?v0 Num$) (?v1 Num$)) (! (= (less_eq$a (bit1$ ?v0) (bit0$ ?v1)) (fun_app$b (less$a ?v0) ?v1)) :pattern ((less_eq$a (bit1$ ?v0) (bit0$ ?v1))))))
(assert (forall ((?v0 Nat$) (?v1 Nat$) (?v2 Nat$)) (=> (and (fun_app$ (dvd$ ?v0) ?v1) (fun_app$ (dvd$ ?v1) ?v2)) (fun_app$ (dvd$ ?v0) ?v2)) ))
(assert (forall ((?v0 Nat$)) (fun_app$ (dvd$ ?v0) ?v0) ))
(assert (forall ((?v0 Nat$) (?v1 Nat$) (?v2 Nat$)) (= (times$ ?v0 (plus$ ?v1 ?v2)) (plus$ (times$ ?v0 ?v1) (times$ ?v0 ?v2))) ))
(assert (forall ((?v0 Nat$) (?v1 Nat$) (?v2 Nat$)) (= (times$ (plus$ ?v0 ?v1) ?v2) (plus$ (times$ ?v0 ?v2) (times$ ?v1 ?v2))) ))
(assert (forall ((?v0 Nat$) (?v1 Nat$) (?v2 Nat$)) (= (times$ (plus$ ?v0 ?v1) ?v2) (plus$ (times$ ?v0 ?v2) (times$ ?v1 ?v2))) ))
(assert (forall ((?v0 Nat$) (?v1 Nat$) (?v2 Nat$) (?v3 Nat$)) (= (plus$ (times$ ?v0 ?v1) (plus$ (times$ ?v2 ?v1) ?v3)) (plus$ (times$ (plus$ ?v0 ?v2) ?v1) ?v3)) ))
(assert (forall ((?v0 Nat$) (?v1 Nat$)) (fun_app$ (dvd$ ?v0) (times$ ?v0 ?v1)) ))
(assert (forall ((?v0 Nat$) (?v1 Nat$)) (fun_app$ (dvd$ ?v0) (times$ ?v1 ?v0)) ))
(assert (forall ((?v0 Nat$) (?v1 Nat$) (?v2 Nat$)) (=> (fun_app$ (dvd$ ?v0) ?v1) (fun_app$ (dvd$ ?v0) (times$ ?v2 ?v1))) ))
(assert (forall ((?v0 Nat$) (?v1 Nat$) (?v2 Nat$)) (=> (fun_app$ (dvd$ ?v0) ?v1) (fun_app$ (dvd$ ?v0) (times$ ?v1 ?v2))) ))
(assert (forall ((?v0 Nat$) (?v1 Nat$) (?v2 Nat$) (?v3 Nat$)) (=> (and (fun_app$ (dvd$ ?v0) ?v1) (fun_app$ (dvd$ ?v2) ?v3)) (fun_app$ (dvd$ (times$ ?v0 ?v2)) (times$ ?v1 ?v3))) ))
(assert (forall ((?v0 Nat$) (?v1 Nat$)) (=> (and (fun_app$ (dvd$ ?v0) ?v1) (forall ((?v2 Nat$)) (=> (= ?v1 (times$ ?v0 ?v2)) false) )) false) ))
(assert (forall ((?v0 Nat$) (?v1 Nat$) (?v2 Nat$)) (=> (fun_app$ (dvd$ (times$ ?v0 ?v1)) ?v2) (fun_app$ (dvd$ ?v0) ?v2)) ))
(assert (forall ((?v0 Nat$) (?v1 Nat$) (?v2 Nat$)) (=> (fun_app$ (dvd$ (times$ ?v0 ?v1)) ?v2) (fun_app$ (dvd$ ?v1) ?v2)) ))
(assert (forall ((?v0 Nat$) (?v1 Nat$) (?v2 Nat$)) (=> (= ?v0 (times$ ?v1 ?v2)) (fun_app$ (dvd$ ?v1) ?v0)) ))
(assert (forall ((?v0 Nat$) (?v1 Nat$)) (= (fun_app$ (dvd$ ?v0) ?v1) (exists ((?v2 Nat$)) (= ?v1 (times$ ?v0 ?v2)) )) ))
(assert (forall ((?v0 Nat$) (?v1 Nat$) (?v2 Nat$)) (=> (and (fun_app$ (dvd$ ?v0) ?v1) (fun_app$ (dvd$ ?v0) ?v2)) (fun_app$ (dvd$ ?v0) (plus$ ?v1 ?v2))) ))
(assert (forall ((?v0 Nat$) (?v1 Nat$) (?v2 Nat$)) (=> (fun_app$ (dvd$ ?v0) ?v1) (= (fun_app$ (dvd$ ?v0) (plus$ ?v1 ?v2)) (fun_app$ (dvd$ ?v0) ?v2))) ))
(assert (forall ((?v0 Nat$) (?v1 Nat$) (?v2 Nat$)) (=> (fun_app$ (dvd$ ?v0) ?v1) (= (fun_app$ (dvd$ ?v0) (plus$ ?v2 ?v1)) (fun_app$ (dvd$ ?v0) ?v2))) ))
(assert (forall ((?v0 Nat$) (?v1 Nat$)) (=> (and (fun_app$ (dvd$ ?v0) ?v1) (fun_app$ (dvd$ ?v1) one$a)) (fun_app$ (dvd$ ?v0) one$a)) ))
(assert (forall ((?v0 Nat$) (?v1 Nat$)) (=> (fun_app$ (dvd$ ?v0) one$a) (fun_app$ (dvd$ ?v0) ?v1)) ))
(assert (forall ((?v0 Nat$)) (fun_app$ (dvd$ one$a) ?v0) ))
(assert (forall ((?v0 Nat$)) (exists ((?v1 Nat$)) (and (prime$ ?v1) (fun_app$ (less$ ?v0) ?v1)) ) ))
(assert (not (prime$ one$a)))
(assert (forall ((?v0 Nat$) (?v1 Nat$)) (=> (and (fun_app$ (less$ one$a) ?v0) (fun_app$ (less$ one$a) ?v1)) (fun_app$ (less$ one$a) (times$ ?v0 ?v1))) ))
(assert (forall ((?v0 Nat$)) (fun_app$ (less$ ?v0) (plus$ ?v0 one$a)) ))
(assert (forall ((?v0 Nat$) (?v1 Nat$) (?v2 Nat$)) (=> (fun_app$ (dvd$ ?v0) one$a) (= (fun_app$ (dvd$ ?v1) (times$ ?v2 ?v0)) (fun_app$ (dvd$ ?v1) ?v2))) ))
(assert (forall ((?v0 Nat$) (?v1 Nat$) (?v2 Nat$)) (=> (fun_app$ (dvd$ ?v0) one$a) (= (fun_app$ (dvd$ (times$ ?v1 ?v0)) ?v2) (fun_app$ (dvd$ ?v1) ?v2))) ))
(assert (forall ((?v0 Nat$) (?v1 Nat$) (?v2 Nat$)) (=> (fun_app$ (dvd$ ?v0) one$a) (= (= (times$ ?v0 ?v1) (times$ ?v0 ?v2)) (= ?v1 ?v2))) ))
(assert (forall ((?v0 Nat$) (?v1 Nat$) (?v2 Nat$)) (=> (fun_app$ (dvd$ ?v0) one$a) (= (= (times$ ?v1 ?v0) (times$ ?v2 ?v0)) (= ?v1 ?v2))) ))
(assert (forall ((?v0 Nat$) (?v1 Nat$) (?v2 Nat$)) (=> (and (prime$ ?v0) (fun_app$ (dvd$ ?v0) (times$ ?v1 ?v2))) (or (fun_app$ (dvd$ ?v0) ?v1) (fun_app$ (dvd$ ?v0) ?v2))) ))
(assert (forall ((?v0 Nat$)) (=> (not (= ?v0 one$a)) (exists ((?v1 Nat$)) (and (prime$ ?v1) (fun_app$ (dvd$ ?v1) ?v0)) )) ))
(assert (forall ((?v0 Nat$)) (=> (prime$ ?v0) (fun_app$ (less$ one$a) ?v0)) ))
(assert (forall ((?v0 Nat$)) (=> (prime$ ?v0) (fun_app$ (less_eq$ one$a) ?v0)) ))
(assert (forall ((?v0 Nat$) (?v1 Nat$)) (=> (prime$ (times$ ?v0 ?v1)) (or (= ?v0 one$a) (= ?v1 one$a))) ))
(assert (forall ((?v0 Num$)) (fun_app$ (dvd$ (numeral$ (bit0$ one$))) (numeral$ (bit0$ ?v0))) ))
(assert (prime$ (numeral$ (bit0$ one$))))
(assert (forall ((?v0 Nat$)) (= (prime$ ?v0) (and (fun_app$ (less$ one$a) ?v0) (forall ((?v1 Nat$)) (=> (fun_app$ (dvd$ ?v1) ?v0) (or (= ?v1 one$a) (= ?v1 ?v0))) ))) ))
(assert (forall ((?v0 Nat$)) (=> (and (fun_app$ (less$ one$a) ?v0) (not (prime$ ?v0))) (exists ((?v1 Nat$) (?v2 Nat$)) (and (= ?v0 (times$ ?v1 ?v2)) (and (fun_app$ (less$ one$a) ?v1) (and (fun_app$ (less$ ?v1) ?v0) (and (fun_app$ (less$ one$a) ?v2) (fun_app$ (less$ ?v2) ?v0))))) )) ))
(assert (forall ((?v0 Nat$)) (=> (and (fun_app$ (dvd$ (numeral$ (bit0$ one$))) ?v0) (forall ((?v1 Nat$)) (=> (= ?v0 (times$ (numeral$ (bit0$ one$)) ?v1)) false) )) false) ))
(assert (forall ((?v0 Nat$) (?v1 Nat$)) (=> (fun_app$ (dvd$ (numeral$ (bit0$ one$))) (times$ ?v0 ?v1)) (or (fun_app$ (dvd$ (numeral$ (bit0$ one$))) ?v0) (fun_app$ (dvd$ (numeral$ (bit0$ one$))) ?v1))) ))
(assert (forall ((?v0 Nat$) (?v1 Nat$)) (=> (and (not (fun_app$ (dvd$ (numeral$ (bit0$ one$))) ?v0)) (not (fun_app$ (dvd$ (numeral$ (bit0$ one$))) ?v1))) (fun_app$ (dvd$ (numeral$ (bit0$ one$))) (plus$ ?v0 ?v1))) ))
(assert (not (fun_app$ (dvd$ (numeral$ (bit0$ one$))) one$a)))
(assert (forall ((?v0 Num$)) (not (fun_app$ (dvd$ (numeral$ (bit0$ one$))) (numeral$ (bit1$ ?v0)))) ))
(assert (forall ((?v0 Nat$)) (=> (prime$ ?v0) (fun_app$ (less_eq$ (numeral$ (bit0$ one$))) ?v0)) ))
(assert (forall ((?v0 Nat$)) (=> (not (fun_app$ (dvd$ (numeral$ (bit0$ one$))) ?v0)) (exists ((?v1 Nat$)) (= ?v0 (plus$ ?v1 one$a)) )) ))
(assert (forall ((?v0 Nat$)) (=> (and (prime$ ?v0) (fun_app$ (less$ (numeral$ (bit0$ one$))) ?v0)) (not (fun_app$ (dvd$ (numeral$ (bit0$ one$))) ?v0))) ))
(assert (forall ((?v0 Nat$)) (=> (and (not (fun_app$ (dvd$ (numeral$ (bit0$ one$))) ?v0)) (forall ((?v1 Nat$)) (=> (= ?v0 (plus$ (times$ (numeral$ (bit0$ one$)) ?v1) one$a)) false) )) false) ))
(assert (forall ((?v0 Num$) (?v1 Nat$) (?v2 Nat$)) (= (times$ (numeral$ ?v0) (plus$ ?v1 ?v2)) (plus$ (times$ (numeral$ ?v0) ?v1) (times$ (numeral$ ?v0) ?v2))) ))
(assert (forall ((?v0 Nat$) (?v1 Nat$) (?v2 Num$)) (= (times$ (plus$ ?v0 ?v1) (numeral$ ?v2)) (plus$ (times$ ?v0 (numeral$ ?v2)) (times$ ?v1 (numeral$ ?v2)))) ))
(assert (forall ((?v0 Nat$) (?v1 Nat$)) (= (= (times$ ?v0 ?v1) one$a) (and (= ?v0 one$a) (= ?v1 one$a))) ))
(assert (forall ((?v0 Nat$)) (fun_app$ (dvd$ ?v0) ?v0) ))
(assert (forall ((?v0 Nat$)) (fun_app$ (dvd$ ?v0) ?v0) ))
(assert (forall ((?v0 Nat$)) (= (fun_app$ (dvd$ ?v0) one$a) (= ?v0 one$a)) ))
(assert (forall ((?v0 Nat$) (?v1 Nat$) (?v2 Nat$)) (= (fun_app$ (less$ (plus$ ?v0 ?v1)) (plus$ ?v0 ?v2)) (fun_app$ (less$ ?v1) ?v2)) ))
(assert (forall ((?v0 Nat$) (?v1 Nat$) (?v2 Nat$)) (= (fun_app$ (less_eq$ (plus$ ?v0 ?v1)) (plus$ ?v0 ?v2)) (fun_app$ (less_eq$ ?v1) ?v2)) ))
(assert (forall ((?v0 Nat$) (?v1 Nat$)) (= (= one$a (times$ ?v0 ?v1)) (and (= ?v0 one$a) (= ?v1 one$a))) ))
(assert (forall ((?v0 Nat$)) (not (and (fun_app$ (dvd$ ?v0) ?v0) (not (fun_app$ (dvd$ ?v0) ?v0)))) ))
(assert (forall ((?v0 Nat$)) (not (and (fun_app$ (dvd$ ?v0) ?v0) (not (fun_app$ (dvd$ ?v0) ?v0)))) ))
(assert (forall ((?v0 Nat$) (?v1 Nat$)) (=> (and (not (= ?v0 ?v1)) (fun_app$ (dvd$ ?v0) ?v1)) (and (fun_app$ (dvd$ ?v0) ?v1) (not (fun_app$ (dvd$ ?v1) ?v0)))) ))
(assert (forall ((?v0 Nat$) (?v1 Nat$)) (=> (and (not (= ?v0 ?v1)) (fun_app$ (dvd$ ?v1) ?v0)) (and (fun_app$ (dvd$ ?v1) ?v0) (not (fun_app$ (dvd$ ?v0) ?v1)))) ))
(assert (forall ((?v0 Nat$) (?v1 Nat$)) (=> (fun_app$ (dvd$ ?v0) ?v1) (or (and (fun_app$ (dvd$ ?v0) ?v1) (not (fun_app$ (dvd$ ?v1) ?v0))) (= ?v0 ?v1))) ))
(assert (forall ((?v0 Nat$) (?v1 Nat$)) (! (=> (fun_app$ (dvd$ ?v0) ?v1) (= (fun_app$ (dvd$ ?v1) ?v0) (= ?v1 ?v0))) :pattern ((fun_app$ (dvd$ ?v1) ?v0)))))
(assert (forall ((?v0 Nat$) (?v1 Nat$)) (=> (and (fun_app$ (dvd$ ?v0) ?v1) (not (= ?v0 ?v1))) (and (fun_app$ (dvd$ ?v0) ?v1) (not (fun_app$ (dvd$ ?v1) ?v0)))) ))
(assert (forall ((?v0 Nat$) (?v1 Nat$) (?v2 Nat$)) (=> (and (fun_app$ (dvd$ ?v0) ?v1) (fun_app$ (dvd$ ?v1) ?v2)) (fun_app$ (dvd$ ?v0) ?v2)) ))
(assert (forall ((?v0 Nat$) (?v1 Nat$) (?v2 Nat$)) (=> (and (fun_app$ (dvd$ ?v0) ?v1) (fun_app$ (dvd$ ?v1) ?v2)) (fun_app$ (dvd$ ?v0) ?v2)) ))
(assert (forall ((?v0 Nat$) (?v1 Nat$) (?v2 Nat$)) (=> (and (fun_app$ (dvd$ ?v0) ?v1) (fun_app$ (dvd$ ?v2) ?v0)) (fun_app$ (dvd$ ?v2) ?v1)) ))
(assert (forall ((?v0 Nat$) (?v1 Nat$)) (=> (and (fun_app$ (dvd$ ?v0) ?v1) (fun_app$ (dvd$ ?v1) ?v0)) (= ?v0 ?v1)) ))
(assert (forall ((?v0 Nat$) (?v1 Nat$)) (=> (and (fun_app$ (dvd$ ?v0) ?v1) (fun_app$ (dvd$ ?v1) ?v0)) (= ?v0 ?v1)) ))
(assert (forall ((?v0 Nat$) (?v1 Nat$)) (=> (and (fun_app$ (dvd$ ?v0) ?v1) (fun_app$ (dvd$ ?v1) ?v0)) (= ?v0 ?v1)) ))
(assert (forall ((?v0 Nat$) (?v1 Nat$)) (=> (and (fun_app$ (dvd$ ?v0) ?v1) (fun_app$ (dvd$ ?v1) ?v0)) (= ?v1 ?v0)) ))
(assert (forall ((?v0 Nat$) (?v1 Nat$) (?v2 Nat$)) (=> (and (fun_app$ (dvd$ ?v0) ?v1) (and (fun_app$ (dvd$ ?v1) ?v2) (not (fun_app$ (dvd$ ?v2) ?v1)))) (and (fun_app$ (dvd$ ?v0) ?v2) (not (fun_app$ (dvd$ ?v2) ?v0)))) ))
(assert (forall ((?v0 Nat$) (?v1 Nat$) (?v2 Nat$)) (=> (and (fun_app$ (dvd$ ?v0) ?v1) (and (fun_app$ (dvd$ ?v1) ?v2) (not (fun_app$ (dvd$ ?v2) ?v1)))) (and (fun_app$ (dvd$ ?v0) ?v2) (not (fun_app$ (dvd$ ?v2) ?v0)))) ))
(assert (forall ((?v0 Nat$) (?v1 Nat$) (?v2 Nat$)) (=> (and (fun_app$ (dvd$ ?v0) ?v1) (and (fun_app$ (dvd$ ?v2) ?v0) (not (fun_app$ (dvd$ ?v0) ?v2)))) (and (fun_app$ (dvd$ ?v2) ?v1) (not (fun_app$ (dvd$ ?v1) ?v2)))) ))
(assert (forall ((?v0 Nat$) (?v1 Nat$) (?v2 Nat$)) (=> (and (fun_app$ (dvd$ ?v0) ?v1) (= ?v1 ?v2)) (fun_app$ (dvd$ ?v0) ?v2)) ))
(assert (forall ((?v0 Nat$) (?v1 Nat$)) (=> (and (fun_app$ (dvd$ ?v0) ?v1) (not (fun_app$ (dvd$ ?v1) ?v0))) (not (and (fun_app$ (dvd$ ?v1) ?v0) (not (fun_app$ (dvd$ ?v0) ?v1))))) ))
(assert (forall ((?v0 Nat$) (?v1 Nat$)) (=> (and (fun_app$ (dvd$ ?v0) ?v1) (not (fun_app$ (dvd$ ?v1) ?v0))) (not (= ?v0 ?v1))) ))
(assert (forall ((?v0 Nat$) (?v1 Nat$)) (=> (and (fun_app$ (dvd$ ?v0) ?v1) (not (fun_app$ (dvd$ ?v1) ?v0))) (not (= ?v0 ?v1))) ))
(check-sat)
(exit)

